(set-logic HORN)
(set-info :source |
    Benchmark: C_VC
    Output by Princess (http://www.philipp.ruemmer.org/princess.shtml)
|)
(set-info :status sat)
;===============================================================================
; Encoding of Heap sorts and operations
;-------------------------------------------------------------------------------
(define-sort Addr() Int)
(declare-datatypes ((AddrRange 0))
                   (((AddrRange (AddrRangeStart Addr) (AddrRangeSize Int)))))

(declare-datatypes ((HeapObject 0) (node 0))
                   (((O_Int (getInt Int)) (O_UInt (getUInt Int)) (O_Addr (getAddr Addr)) (O_node (getnode node)) (defObj))
                   ((node (data Int) (next Addr) (prev Addr)))))
(declare-datatypes ((BatchAllocResHeap 0) (AllocResHeap 0) (Heap 0))
                   (((BatchAllocResHeap   (newBatchHeap Heap) (newAddrRange AddrRange)))
                   ((AllocResHeap   (newHeap Heap) (newAddr Addr)))
                    ((HeapCtor (HeapSize Int)
                               (HeapContents (Array Addr HeapObject))))))
(define-fun nullAddr  () Addr 0)
(define-fun validHeap     ((h Heap) (p Addr)) Bool
  (and (>= (HeapSize h) p) (> p 0)))
(define-fun emptyHeap () Heap (
  HeapCtor 0 (( as const (Array Addr HeapObject)) defObj)))
(define-fun readHeap ((h Heap) (p Addr)) HeapObject
  (ite (validHeap h p)
       (select (HeapContents h) p)
       defObj))
(define-fun writeHeap ((h Heap) (p Addr) (o HeapObject)) Heap
  (ite (validHeap h p)
       (HeapCtor (HeapSize h) (store (HeapContents h) p o))
       h))
(define-fun allocHeap   ((h Heap) (o HeapObject)) AllocResHeap
  (AllocResHeap (HeapCtor (+ 1 (HeapSize h))
                    (store (HeapContents h) (+ 1 (HeapSize h)) o))
          (+ 1 (HeapSize h))))
(define-fun Heap-eq     ((h1 Heap) (h2 Heap)) Bool
  (forall ((p Addr))
          (and (= (validHeap h1 p) (validHeap h2 p))
               (= (readHeap h1 p) (readHeap h2 p)))))
(define-fun nthAddrRange((ar AddrRange) (n Int)) Addr
  (ite (and (>= n 0) (< n (AddrRangeSize ar)))
       (+ (AddrRangeStart ar) n)
       nullAddr))
(define-fun withinHeap ((ar AddrRange ) (p Addr)) Bool
  (and (>= p (AddrRangeStart ar)) (< p (+ (AddrRangeStart ar) (AddrRangeSize ar)))))

(declare-fun batchAllocHeap     (Heap Heap HeapObject Int Int) Bool)
(declare-fun batchAllocPostHeap (Heap Heap HeapObject Int) Bool)

(assert (forall ((h1 Heap) (h2 Heap) (o HeapObject) (n1 Int) (n2 Int))
                (=> (and (> n2 0) (batchAllocHeap h1 h2 o n1 n2))
                   (batchAllocHeap h1 (newHeap (allocHeap h2 o)) o n1 (- n2 1)))))
(assert (forall ((h1 Heap) (h2 Heap) (o HeapObject) (n1 Int) (n2 Int))
                (=> (and (<= n2 0) (batchAllocHeap h1 h2 o n1 n2))
                   (batchAllocPostHeap h1 h2 o n1))))

(declare-fun batchWriteHeap     (Heap Heap Addr Addr HeapObject Int Int) Bool)
(declare-fun batchWritePostHeap (Heap Heap Addr HeapObject Int) Bool)

(assert (forall ((h1 Heap) (h2 Heap) (a1 Addr) (a2 Addr) (o HeapObject) (n1 Int) (n2 Int))
                (=> (and (> n2 0) (batchWriteHeap h1 h2 a1 a2 o n1 n2))
                   (batchWriteHeap h1 (writeHeap h2 a2 o) a1 (+ a2 1) o n1 (- n2 1)))))
(assert (forall ((h1 Heap) (h2 Heap) (a1 Addr) (a2 Addr) (o HeapObject) (n1 Int) (n2 Int))
                (=> (and (<= n2 0) (batchWriteHeap h1 h2 a1 a2 o n1 n2))
                   (batchWritePostHeap h1 h2 a1 o n1))))

;===============================================================================
(declare-fun inv_main12 (Heap Int Int Int Int Addr Int) Bool)
(declare-fun inv_main15 (Heap Int Int Int Int Addr) Bool)
(declare-fun inv_main16 (Heap Int Int Int Int Addr) Bool)
(declare-fun inv_main18 (Heap Int Int Int Int Addr Addr) Bool)
(declare-fun inv_main19 (Heap Int Int Int Int Addr Addr) Bool)
(declare-fun inv_main22 (Heap Int Int Int Int Addr Addr Addr) Bool)
(declare-fun inv_main25 (Heap Int Int Int Int Addr Addr Addr Int) Bool)
(declare-fun inv_main28 (Heap Int Int Int Int Addr Addr Addr) Bool)
(declare-fun inv_main29 (Heap Int Int Int Int Addr Addr Addr) Bool)
(declare-fun inv_main32 (Heap Int Int Int Int Addr Addr) Bool)
(declare-fun inv_main36 (Heap Int Int Addr Int Addr) Bool)
(declare-fun inv_main37 (Heap Int Int Addr Int Addr) Bool)
(declare-fun inv_main39 (Heap Int Int Addr Int Addr) Bool)
(declare-fun inv_main4 (Heap Int Int) Bool)
(declare-fun inv_main42 (Heap Int Int Addr Int Addr) Bool)
(declare-fun inv_main45 (Heap Int Int Addr Int Addr) Bool)
(declare-fun inv_main51 (Heap Int Int Addr Int Addr) Bool)
(declare-fun inv_main52 (Heap Int Int Addr Int Addr) Bool)
(declare-fun inv_main57 (Heap Int Int Addr Int Addr) Bool)
(declare-fun inv_main9 (Heap Int Int Int Int Addr) Bool)
(assert (forall ((var0 Heap)) (or (not (= var0 emptyHeap)) (inv_main4 var0 5 1))))
(assert (forall ((var0 Addr) (var1 Addr) (var2 Addr) (var3 Int) (var4 Int) (var5 Int) (var6 Int) (var7 Heap)) (or (not (and (and (inv_main22 var7 var6 var5 var4 var3 var2 var1 var0) (is-O_node (readHeap var7 var0))) (is-O_node (readHeap var7 var0)))) (inv_main28 (writeHeap var7 var0 (O_node (node (data (getnode (readHeap var7 var0))) var1 (prev (getnode (readHeap var7 var0)))))) var6 var5 var4 var3 var2 var1 var0))))
(assert (forall ((var0 Addr) (var1 Int) (var2 Int) (var3 Int) (var4 Int) (var5 Heap)) (or (not (and (and (inv_main15 var5 var4 var3 var2 var1 var0) (is-O_node (readHeap var5 var0))) (is-O_node (readHeap var5 var0)))) (inv_main16 (writeHeap var5 var0 (O_node (node (data (getnode (readHeap var5 var0))) (next (getnode (readHeap var5 var0))) var0))) var4 var3 var2 var1 var0))))
(assert (forall ((var0 Addr) (var1 Int) (var2 Addr) (var3 Int) (var4 Int) (var5 Heap)) (or (not (and (and (inv_main36 var5 var4 var3 var2 var1 var0) (= var3 (data (getnode (readHeap var5 var0))))) (is-O_node (readHeap var5 var0)))) (inv_main39 var5 var4 var3 var2 var1 var0))))
(assert (forall ((var0 Int) (var1 Addr) (var2 Addr) (var3 Addr) (var4 Int) (var5 Int) (var6 Int) (var7 Int) (var8 Heap)) (or (not (inv_main25 var8 var7 var6 var5 var4 var3 var2 var1 var0)) (inv_main25 var8 var7 var6 var5 var4 var3 var2 var1 var0))))
(assert (forall ((var0 Addr) (var1 Addr) (var2 Int) (var3 Int) (var4 Int) (var5 Int) (var6 node) (var7 Heap) (var8 Addr) (var9 Addr) (var10 Addr) (var11 Int) (var12 Int) (var13 Int) (var14 Int) (var15 Heap)) (or (not (and (and (and (and (and (and (and (and (and (and (inv_main18 var15 var14 var13 var12 var11 var10 var9) (<= 0 (+ (+ (* (- 1) 1) var12) (* (- 1) 1)))) (= var8 (newAddr (allocHeap var15 (O_node var6))))) (= var0 var9)) (= var1 var10)) (= var2 var11)) (= var3 var12)) (= var4 var13)) (= var5 var14)) (= var7 (newHeap (allocHeap var15 (O_node var6))))) (= nullAddr var8))) (inv_main25 var7 var5 var4 var3 var2 var1 var0 var8 1))))
(assert (forall ((var0 Addr) (var1 Addr) (var2 Int) (var3 Int) (var4 Int) (var5 Int) (var6 Heap)) (or (not (and (and (inv_main19 var6 var5 var4 var3 var2 var1 var0) (is-O_node (readHeap var6 var1))) (is-O_node (readHeap var6 var1)))) (inv_main32 (writeHeap var6 var1 (O_node (node (data (getnode (readHeap var6 var1))) var0 (prev (getnode (readHeap var6 var1)))))) var5 var4 var3 var2 var1 var0))))
(assert (forall ((var0 Addr) (var1 Int) (var2 Addr) (var3 Int) (var4 Int) (var5 Heap) (var6 Addr) (var7 Int) (var8 Addr) (var9 Int) (var10 Int) (var11 Heap) (var12 Addr) (var13 Int) (var14 Addr) (var15 Int) (var16 Int) (var17 Heap)) (or (not (and (and (and (and (and (and (and (and (and (and (and (and (and (and (inv_main45 var17 var16 var15 var14 var13 var12) (= var0 var6)) (= var1 var7)) (= var2 nullAddr)) (= var3 var9)) (= var4 var10)) (= var5 var11)) (= var6 var12)) (= var7 var13)) (= var8 var14)) (= var9 var15)) (= var10 var16)) (= var11 (writeHeap var17 var14 (O_node (node (data (getnode (readHeap var17 var14))) (next (getnode (readHeap var17 var14))) nullAddr))))) (is-O_node (readHeap var17 var14))) (is-O_node (readHeap var17 var14)))) (inv_main51 var5 var4 var3 var2 (+ var1 (* (- 1) 1)) var0))))
(assert (forall ((var0 Addr) (var1 Int) (var2 Addr) (var3 Int) (var4 Int) (var5 Heap) (var6 Addr) (var7 Addr) (var8 Int) (var9 Addr) (var10 Int) (var11 Int) (var12 Heap) (var13 Addr) (var14 Addr) (var15 Int) (var16 Addr) (var17 Int) (var18 Int) (var19 Heap)) (or (not (and (and (and (and (and (and (and (and (and (and (and (and (and (and (and (and (inv_main52 var19 var18 var17 var16 var15 var14) (= var13 var6)) (= var0 var7)) (= var1 var8)) (= var2 var9)) (= var3 var10)) (= var4 var11)) (= var5 (writeHeap var12 var7 defObj))) (= var6 (prev (getnode (readHeap var19 var14))))) (= var7 var14)) (= var8 var15)) (= var9 var16)) (= var10 var17)) (= var11 var18)) (= var12 var19)) (is-O_node (readHeap var19 var14))) (not (= var13 nullAddr)))) (inv_main51 var5 var4 var3 var2 (+ var1 (* (- 1) 1)) var13))))
(assert (forall ((var0 Addr) (var1 Addr) (var2 Addr) (var3 Int) (var4 Int) (var5 Int) (var6 Int) (var7 Heap) (var8 Addr) (var9 Addr) (var10 Addr) (var11 Int) (var12 Int) (var13 Int) (var14 Int) (var15 Heap)) (or (not (and (and (and (and (and (and (and (and (and (and (inv_main29 var15 var14 var13 var12 var11 var10 var9 var8) (= var0 var8)) (= var1 var9)) (= var2 var10)) (= var3 var11)) (= var4 var12)) (= var5 var13)) (= var6 var14)) (= var7 (writeHeap var15 var9 (O_node (node (data (getnode (readHeap var15 var9))) (next (getnode (readHeap var15 var9))) var8))))) (is-O_node (readHeap var15 var9))) (is-O_node (readHeap var15 var9)))) (inv_main18 var7 var6 var5 (+ var4 (* (- 1) 1)) var3 var2 var0))))
(assert (forall ((var0 Addr) (var1 Int) (var2 Int) (var3 Int) (var4 Int) (var5 Heap) (var6 Addr) (var7 Int) (var8 Int) (var9 Int) (var10 Int) (var11 Heap)) (or (not (and (and (and (and (and (and (and (and (inv_main16 var11 var10 var9 var8 var7 var6) (= var0 var6)) (= var1 var7)) (= var2 var8)) (= var3 var9)) (= var4 var10)) (= var5 (writeHeap var11 var6 (O_node (node var7 (next (getnode (readHeap var11 var6))) (prev (getnode (readHeap var11 var6)))))))) (is-O_node (readHeap var11 var6))) (is-O_node (readHeap var11 var6)))) (inv_main18 var5 var4 var3 var2 var1 var0 var0))))
(assert (forall ((var0 Addr) (var1 Int) (var2 Int) (var3 Int) (var4 Int) (var5 Heap)) (or (not (and (and (inv_main9 var5 var4 var3 var2 var1 var0) (is-O_node (readHeap var5 var0))) (is-O_node (readHeap var5 var0)))) (inv_main15 (writeHeap var5 var0 (O_node (node (data (getnode (readHeap var5 var0))) var0 (prev (getnode (readHeap var5 var0)))))) var4 var3 var2 var1 var0))))
(assert (forall ((var0 Int) (var1 Addr) (var2 Int) (var3 Int) (var4 Int) (var5 Int) (var6 Heap)) (or (not (inv_main12 var6 var5 var4 var3 var2 var1 var0)) (inv_main12 var6 var5 var4 var3 var2 var1 var0))))
(assert (forall ((var0 Int) (var1 Int) (var2 Int) (var3 Int) (var4 node) (var5 Heap) (var6 Addr) (var7 Int) (var8 Int) (var9 Heap)) (or (not (and (and (and (and (and (and (and (inv_main4 var9 var8 var7) (= var6 (newAddr (allocHeap var9 (O_node var4))))) (= var0 var7)) (= var1 var8)) (= var2 var7)) (= var3 var8)) (= var5 (newHeap (allocHeap var9 (O_node var4))))) (= nullAddr var6))) (inv_main12 var5 var3 var2 var1 var0 var6 1))))
(assert (forall ((var0 Addr) (var1 Addr) (var2 Int) (var3 Addr) (var4 Int) (var5 Int) (var6 Heap) (var7 Addr) (var8 Int) (var9 Addr) (var10 Int) (var11 Int) (var12 Heap)) (or (not (and (and (and (and (and (and (and (and (inv_main37 var12 var11 var10 var9 var8 var7) (= var0 (prev (getnode (readHeap var12 var7))))) (= var1 var7)) (= var2 var8)) (= var3 var9)) (= var4 var10)) (= var5 var11)) (= var6 var12)) (is-O_node (readHeap var12 var7)))) (inv_main45 var6 var5 var4 var3 var2 var0))))
(assert (forall ((var0 Addr) (var1 Int) (var2 Addr) (var3 Int) (var4 Int) (var5 Heap)) (or (not (and (and (inv_main39 var5 var4 var3 var2 var1 var0) (is-O_node (readHeap var5 var0))) (is-O_node (readHeap var5 var0)))) (inv_main42 (writeHeap var5 var0 (O_node (node var1 (next (getnode (readHeap var5 var0))) (prev (getnode (readHeap var5 var0)))))) var4 var3 var2 var1 var0))))
(assert (forall ((var0 Addr) (var1 Int) (var2 Addr) (var3 Int) (var4 Int) (var5 Heap)) (or (not (and (and (inv_main36 var5 var4 var3 var2 var1 var0) (not (= var3 (data (getnode (readHeap var5 var0)))))) (is-O_node (readHeap var5 var0)))) (inv_main57 var5 var4 var3 var2 var1 var0))))
(assert (forall ((var0 Addr) (var1 Int) (var2 Addr) (var3 Int) (var4 Int) (var5 Heap)) (or (not (and (and (inv_main51 var5 var4 var3 var2 var1 var0) (not (= var1 (data (getnode (readHeap var5 var0)))))) (is-O_node (readHeap var5 var0)))) (inv_main57 var5 var4 var3 var2 var1 var0))))
(assert (forall ((var0 Addr) (var1 Int) (var2 Int) (var3 Int) (var4 Heap) (var5 Addr) (var6 Addr) (var7 Addr) (var8 Int) (var9 Addr) (var10 Int) (var11 Int) (var12 Heap)) (or (not (and (and (and (and (and (and (and (and (and (inv_main42 var12 var11 var10 var9 var8 var7) (= var6 (next (getnode (readHeap var12 var7))))) (= var0 var7)) (= var1 var8)) (= var5 var9)) (= var2 var10)) (= var3 var11)) (= var4 var12)) (is-O_node (readHeap var12 var7))) (= var6 var5))) (inv_main37 var4 var3 var2 var5 (+ var1 1) var6))))
(assert (forall ((var0 Addr) (var1 Int) (var2 Int) (var3 Int) (var4 Heap) (var5 Addr) (var6 Addr) (var7 Addr) (var8 Int) (var9 Addr) (var10 Int) (var11 Int) (var12 Heap)) (or (not (and (and (and (and (and (and (and (and (and (inv_main42 var12 var11 var10 var9 var8 var7) (= var6 (next (getnode (readHeap var12 var7))))) (= var0 var7)) (= var1 var8)) (= var5 var9)) (= var2 var10)) (= var3 var11)) (= var4 var12)) (is-O_node (readHeap var12 var7))) (not (= var6 var5)))) (inv_main36 var4 var3 var2 var5 (+ var1 1) var6))))
(assert (forall ((var0 Addr) (var1 Addr) (var2 Int) (var3 Int) (var4 Int) (var5 Int) (var6 Heap) (var7 Addr) (var8 Addr) (var9 Int) (var10 Int) (var11 Int) (var12 Int) (var13 Heap)) (or (not (and (and (and (and (and (and (and (and (and (inv_main32 var13 var12 var11 var10 var9 var8 var7) (= var0 var7)) (= var1 var8)) (= var2 var9)) (= var3 var10)) (= var4 var11)) (= var5 var12)) (= var6 (writeHeap var13 var7 (O_node (node (data (getnode (readHeap var13 var7))) (next (getnode (readHeap var13 var7))) var8))))) (is-O_node (readHeap var13 var7))) (is-O_node (readHeap var13 var7)))) (inv_main36 var6 var5 var4 var0 1 var0))))
(assert (forall ((var0 Int) (var1 Int) (var2 Int) (var3 Int) (var4 node) (var5 Heap) (var6 Addr) (var7 Int) (var8 Int) (var9 Heap)) (or (not (and (and (and (and (and (and (and (inv_main4 var9 var8 var7) (= var6 (newAddr (allocHeap var9 (O_node var4))))) (= var0 var7)) (= var1 var8)) (= var2 var7)) (= var3 var8)) (= var5 (newHeap (allocHeap var9 (O_node var4))))) (not (= nullAddr var6)))) (inv_main9 var5 var3 var2 var1 var0 var6))))
(assert (forall ((var0 Addr) (var1 Int) (var2 Addr) (var3 Int) (var4 Int) (var5 Heap)) (or (not (and (and (inv_main51 var5 var4 var3 var2 var1 var0) (= var1 (data (getnode (readHeap var5 var0))))) (is-O_node (readHeap var5 var0)))) (inv_main52 var5 var4 var3 var2 var1 var0))))
(assert (forall ((var0 Addr) (var1 Addr) (var2 Int) (var3 Int) (var4 Int) (var5 Int) (var6 Heap)) (or (not (and (inv_main18 var6 var5 var4 var3 var2 var1 var0) (not (<= 0 (+ (+ (* (- 1) 1) var3) (* (- 1) 1)))))) (inv_main19 var6 var5 var4 var3 var2 var1 var0))))
(assert (forall ((var0 Addr) (var1 Addr) (var2 Addr) (var3 Int) (var4 Int) (var5 Int) (var6 Int) (var7 Heap)) (or (not (and (and (inv_main28 var7 var6 var5 var4 var3 var2 var1 var0) (is-O_node (readHeap var7 var0))) (is-O_node (readHeap var7 var0)))) (inv_main29 (writeHeap var7 var0 (O_node (node var3 (next (getnode (readHeap var7 var0))) (prev (getnode (readHeap var7 var0)))))) var6 var5 var4 var3 var2 var1 var0))))
(assert (forall ((var0 Addr) (var1 Addr) (var2 Int) (var3 Int) (var4 Int) (var5 Int) (var6 node) (var7 Heap) (var8 Addr) (var9 Addr) (var10 Addr) (var11 Int) (var12 Int) (var13 Int) (var14 Int) (var15 Heap)) (or (not (and (and (and (and (and (and (and (and (and (and (inv_main18 var15 var14 var13 var12 var11 var10 var9) (<= 0 (+ (+ (* (- 1) 1) var12) (* (- 1) 1)))) (= var8 (newAddr (allocHeap var15 (O_node var6))))) (= var0 var9)) (= var1 var10)) (= var2 var11)) (= var3 var12)) (= var4 var13)) (= var5 var14)) (= var7 (newHeap (allocHeap var15 (O_node var6))))) (not (= nullAddr var8)))) (inv_main22 var7 var5 var4 var3 var2 var1 var0 var8))))
(assert (forall ((var0 Addr) (var1 Int) (var2 Int) (var3 Int) (var4 Int) (var5 Heap)) (not (and (inv_main9 var5 var4 var3 var2 var1 var0) (not (is-O_node (readHeap var5 var0)))))))
(assert (forall ((var0 Addr) (var1 Int) (var2 Int) (var3 Int) (var4 Int) (var5 Heap)) (not (and (and (inv_main9 var5 var4 var3 var2 var1 var0) (not (is-O_node (readHeap var5 var0)))) (is-O_node (readHeap var5 var0))))))
(assert (forall ((var0 Addr) (var1 Int) (var2 Int) (var3 Int) (var4 Int) (var5 Heap)) (not (and (inv_main15 var5 var4 var3 var2 var1 var0) (not (is-O_node (readHeap var5 var0)))))))
(assert (forall ((var0 Addr) (var1 Int) (var2 Int) (var3 Int) (var4 Int) (var5 Heap)) (not (and (and (inv_main15 var5 var4 var3 var2 var1 var0) (not (is-O_node (readHeap var5 var0)))) (is-O_node (readHeap var5 var0))))))
(assert (forall ((var0 Addr) (var1 Int) (var2 Int) (var3 Int) (var4 Int) (var5 Heap)) (not (and (inv_main16 var5 var4 var3 var2 var1 var0) (not (is-O_node (readHeap var5 var0)))))))
(assert (forall ((var0 Addr) (var1 Int) (var2 Int) (var3 Int) (var4 Int) (var5 Heap)) (not (and (and (inv_main16 var5 var4 var3 var2 var1 var0) (not (is-O_node (readHeap var5 var0)))) (is-O_node (readHeap var5 var0))))))
(assert (forall ((var0 Addr) (var1 Addr) (var2 Addr) (var3 Int) (var4 Int) (var5 Int) (var6 Int) (var7 Heap)) (not (and (inv_main22 var7 var6 var5 var4 var3 var2 var1 var0) (not (is-O_node (readHeap var7 var0)))))))
(assert (forall ((var0 Addr) (var1 Addr) (var2 Addr) (var3 Int) (var4 Int) (var5 Int) (var6 Int) (var7 Heap)) (not (and (and (inv_main22 var7 var6 var5 var4 var3 var2 var1 var0) (not (is-O_node (readHeap var7 var0)))) (is-O_node (readHeap var7 var0))))))
(assert (forall ((var0 Addr) (var1 Addr) (var2 Addr) (var3 Int) (var4 Int) (var5 Int) (var6 Int) (var7 Heap)) (not (and (inv_main28 var7 var6 var5 var4 var3 var2 var1 var0) (not (is-O_node (readHeap var7 var0)))))))
(assert (forall ((var0 Addr) (var1 Addr) (var2 Addr) (var3 Int) (var4 Int) (var5 Int) (var6 Int) (var7 Heap)) (not (and (and (inv_main28 var7 var6 var5 var4 var3 var2 var1 var0) (not (is-O_node (readHeap var7 var0)))) (is-O_node (readHeap var7 var0))))))
(assert (forall ((var0 Addr) (var1 Addr) (var2 Addr) (var3 Int) (var4 Int) (var5 Int) (var6 Int) (var7 Heap)) (not (and (inv_main29 var7 var6 var5 var4 var3 var2 var1 var0) (not (is-O_node (readHeap var7 var1)))))))
(assert (forall ((var0 Addr) (var1 Addr) (var2 Addr) (var3 Int) (var4 Int) (var5 Int) (var6 Int) (var7 Heap)) (not (and (and (inv_main29 var7 var6 var5 var4 var3 var2 var1 var0) (not (is-O_node (readHeap var7 var1)))) (is-O_node (readHeap var7 var1))))))
(assert (forall ((var0 Addr) (var1 Addr) (var2 Int) (var3 Int) (var4 Int) (var5 Int) (var6 Heap)) (not (and (inv_main19 var6 var5 var4 var3 var2 var1 var0) (not (is-O_node (readHeap var6 var1)))))))
(assert (forall ((var0 Addr) (var1 Addr) (var2 Int) (var3 Int) (var4 Int) (var5 Int) (var6 Heap)) (not (and (and (inv_main19 var6 var5 var4 var3 var2 var1 var0) (not (is-O_node (readHeap var6 var1)))) (is-O_node (readHeap var6 var1))))))
(assert (forall ((var0 Addr) (var1 Addr) (var2 Int) (var3 Int) (var4 Int) (var5 Int) (var6 Heap)) (not (and (inv_main32 var6 var5 var4 var3 var2 var1 var0) (not (is-O_node (readHeap var6 var0)))))))
(assert (forall ((var0 Addr) (var1 Addr) (var2 Int) (var3 Int) (var4 Int) (var5 Int) (var6 Heap)) (not (and (and (inv_main32 var6 var5 var4 var3 var2 var1 var0) (not (is-O_node (readHeap var6 var0)))) (is-O_node (readHeap var6 var0))))))
(assert (forall ((var0 Addr) (var1 Int) (var2 Addr) (var3 Int) (var4 Int) (var5 Heap)) (not (and (inv_main36 var5 var4 var3 var2 var1 var0) (not (is-O_node (readHeap var5 var0)))))))
(assert (forall ((var0 Addr) (var1 Int) (var2 Addr) (var3 Int) (var4 Int) (var5 Heap)) (not (and (inv_main39 var5 var4 var3 var2 var1 var0) (not (is-O_node (readHeap var5 var0)))))))
(assert (forall ((var0 Addr) (var1 Int) (var2 Addr) (var3 Int) (var4 Int) (var5 Heap)) (not (and (and (inv_main39 var5 var4 var3 var2 var1 var0) (not (is-O_node (readHeap var5 var0)))) (is-O_node (readHeap var5 var0))))))
(assert (forall ((var0 Addr) (var1 Int) (var2 Addr) (var3 Int) (var4 Int) (var5 Heap)) (not (and (inv_main42 var5 var4 var3 var2 var1 var0) (not (is-O_node (readHeap var5 var0)))))))
(assert (forall ((var0 Addr) (var1 Int) (var2 Addr) (var3 Int) (var4 Int) (var5 Heap)) (not (and (inv_main37 var5 var4 var3 var2 var1 var0) (not (is-O_node (readHeap var5 var0)))))))
(assert (forall ((var0 Addr) (var1 Int) (var2 Addr) (var3 Int) (var4 Int) (var5 Heap)) (not (and (inv_main45 var5 var4 var3 var2 var1 var0) (not (is-O_node (readHeap var5 var2)))))))
(assert (forall ((var0 Addr) (var1 Int) (var2 Addr) (var3 Int) (var4 Int) (var5 Heap)) (not (and (and (inv_main45 var5 var4 var3 var2 var1 var0) (not (is-O_node (readHeap var5 var2)))) (is-O_node (readHeap var5 var2))))))
(assert (forall ((var0 Addr) (var1 Int) (var2 Addr) (var3 Int) (var4 Int) (var5 Heap)) (not (and (inv_main51 var5 var4 var3 var2 var1 var0) (not (is-O_node (readHeap var5 var0)))))))
(assert (forall ((var0 Addr) (var1 Int) (var2 Addr) (var3 Int) (var4 Int) (var5 Heap)) (not (and (inv_main52 var5 var4 var3 var2 var1 var0) (not (is-O_node (readHeap var5 var0)))))))
(assert (forall ((var0 Addr) (var1 Int) (var2 Addr) (var3 Int) (var4 Int) (var5 Heap)) (not (inv_main57 var5 var4 var3 var2 var1 var0))))
(check-sat)
